nK = 1198;
nT = 6;
nI = 14;
L = 29;
TT = 274;
np = 1;
nc = 3;
b = [69, 45, 41, 55, 24, 32, 48, 61, 31, 35, 32, 29, 25, 54];
d = [122, 108, 149, 93, 53, 62, 121, 99, 118, 70, 140, 97, 103, 95];
m = [2.4, 1, 1, 1, 1.9, 2.4, 1, 2, 1, 1.5, 2.4, 1.8, 1.1, 2.5];
pt = [0.24, 0.24, 0.22, 0.22, 0.3, 0.22];
st = [12, 12.24, 10.34, 11, 15.9, 11.22];
arc = {<1, 0, 1, 1, 0, 0, 0, [1, 1, 1, 1, 1, 1]>, <2, 1, 2, 1, 0, 0, 0, [1, 1, 1, 1, 1, 1]>, <3, 2, 3, 1, 0, 0, 0, [1, 1, 1, 1, 1, 1]>, <4, 3, 4, 1, 0, 0, 0, [1, 1, 1, 1, 1, 1]>, <5, 4, 5, 1, 0, 0, 0, [1, 1, 1, 1, 1, 1]>, <6, 5, 6, 1, 0, 0, 0, [1, 1, 1, 1, 1, 1]>, <7, 6, 7, 1, 0, 0, 0, [1, 1, 1, 1, 1, 1]>, <8, 7, 8, 1, 0, 0, 0, [1, 1, 1, 1, 1, 1]>, <9, 8, 9, 1, 0, 0, 0, [1, 1, 1, 1, 1, 1]>, <10, 9, 10, 1, 0, 0, 0, [1, 1, 1, 1, 1, 1]>, <11, 10, 11, 1, 0, 0, 0, [1, 1, 1, 1, 1, 1]>, <12, 11, 12, 1, 0, 0, 0, [1, 1, 1, 1, 1, 1]>, <13, 12, 13, 1, 0, 0, 0, [1, 1, 1, 1, 1, 1]>, <14, 13, 14, 1, 0, 0, 0, [1, 1, 1, 1, 1, 1]>, <15, 14, 15, 1, 0, 0, 0, [1, 1, 1, 1, 1, 1]>, <16, 15, 16, 1, 0, 0, 0, [1, 1, 1, 1, 1, 1]>, <17, 16, 17, 1, 0, 0, 0, [1, 1, 1, 1, 1, 1]>, <18, 17, 18, 1, 0, 0, 0, [1, 1, 1, 1, 1, 1]>, <19, 18, 19, 1, 0, 0, 0, [1, 1, 1, 1, 1, 1]>, <20, 19, 20, 1, 0, 0, 0, [1, 1, 1, 1, 1, 1]>, <21, 20, 21, 1, 0, 0, 0, [1, 1, 1, 1, 1, 1]>, <22, 21, 22, 1, 0, 0, 0, [1, 1, 1, 1, 1, 1]>, <23, 22, 23, 1, 0, 0, 0, [1, 1, 1, 1, 1, 1]>, <24, 23, 24, 1, 0, 0, 0, [1, 1, 1, 1, 1, 1]>, <25, 24, 25, 1, 0, 0, 0, [1, 1, 1, 1, 1, 1]>, <26, 25, 26, 1, 0, 0, 0, [1, 1, 1, 1, 1, 1]>, <27, 26, 27, 1, 0, 0, 0, [1, 1, 1, 1, 1, 1]>, <28, 27, 28, 1, 0, 0, 0, [1, 1, 1, 1, 1, 1]>, <29, 28, 29, 1, 0, 0, 0, [1, 1, 1, 1, 1, 1]>, <30, 0, 13, 13, 1, 0, 0, [0, 0, 1, 1, 0, 0]>, <31, 1, 14, 13, 1, 0, 0, [0, 0, 1, 1, 0, 0]>, <32, 2, 15, 13, 1, 0, 0, [0, 0, 1, 1, 0, 0]>, <33, 3, 16, 13, 1, 0, 0, [0, 0, 1, 1, 0, 0]>, <34, 4, 17, 13, 1, 0, 0, [0, 0, 1, 1, 0, 0]>, <35, 5, 18, 13, 1, 0, 0, [0, 0, 1, 1, 0, 0]>, <36, 7, 20, 13, 1, 0, 0, [0, 0, 1, 1, 0, 0]>, <37, 8, 21, 13, 1, 0, 0, [0, 0, 1, 1, 0, 0]>, <38, 9, 22, 13, 1, 0, 0, [0, 0, 1, 1, 0, 0]>, <39, 10, 23, 13, 1, 0, 0, [0, 0, 1, 1, 0, 0]>, <40, 11, 24, 13, 1, 0, 0, [0, 0, 1, 1, 0, 0]>, <41, 12, 25, 13, 1, 0, 0, [0, 0, 1, 1, 0, 0]>, <42, 13, 26, 13, 1, 0, 0, [0, 0, 1, 1, 0, 0]>, <43, 14, 27, 13, 1, 0, 0, [0, 0, 1, 1, 0, 0]>, <44, 15, 28, 13, 1, 0, 0, [0, 0, 1, 1, 0, 0]>, <45, 16, 29, 13, 1, 0, 0, [0, 0, 1, 1, 0, 0]>, <46, 0, 14, 14, 2, 0, 0, [1, 1, 0, 0, 0, 0]>, <47, 1, 15, 14, 2, 0, 0, [1, 1, 0, 0, 0, 0]>, <48, 2, 16, 14, 2, 0, 0, [1, 1, 0, 0, 0, 0]>, <49, 3, 17, 14, 2, 0, 0, [1, 1, 0, 0, 0, 0]>, <50, 4, 18, 14, 2, 0, 0, [1, 1, 0, 0, 0, 0]>, <51, 5, 19, 14, 2, 0, 0, [1, 1, 0, 0, 0, 0]>, <52, 6, 20, 14, 2, 0, 0, [1, 1, 0, 0, 0, 0]>, <53, 7, 21, 14, 2, 0, 0, [1, 1, 0, 0, 0, 0]>, <54, 8, 22, 14, 2, 0, 0, [1, 1, 0, 0, 0, 0]>, <55, 9, 23, 14, 2, 0, 0, [1, 1, 0, 0, 0, 0]>, <56, 10, 24, 14, 2, 0, 0, [1, 1, 0, 0, 0, 0]>, <57, 11, 25, 14, 2, 0, 0, [1, 1, 0, 0, 0, 0]>, <58, 12, 26, 14, 2, 0, 0, [1, 1, 0, 0, 0, 0]>, <59, 13, 27, 14, 2, 0, 0, [1, 1, 0, 0, 0, 0]>, <60, 14, 28, 14, 2, 0, 0, [1, 1, 0, 0, 0, 0]>, <61, 15, 29, 14, 2, 0, 0, [1, 1, 0, 0, 0, 0]>, <62, 0, 13, 13, 3, 0, 1, [1, 0, 0, 0, 0, 1]>, <63, 1, 14, 13, 3, 0, 1, [1, 0, 0, 0, 0, 1]>, <64, 2, 15, 13, 3, 0, 1, [1, 0, 0, 0, 0, 1]>, <65, 3, 16, 13, 3, 0, 1, [1, 0, 0, 0, 0, 1]>, <66, 4, 17, 13, 3, 0, 1, [1, 0, 0, 0, 0, 1]>, <67, 5, 18, 13, 3, 0, 1, [1, 0, 0, 0, 0, 1]>, <68, 7, 20, 13, 3, 0, 1, [1, 0, 0, 0, 0, 1]>, <69, 8, 21, 13, 3, 0, 1, [1, 0, 0, 0, 0, 1]>, <70, 9, 22, 13, 3, 0, 1, [1, 0, 0, 0, 0, 1]>, <71, 10, 23, 13, 3, 0, 1, [1, 0, 0, 0, 0, 1]>, <72, 11, 24, 13, 3, 0, 1, [1, 0, 0, 0, 0, 1]>, <73, 12, 25, 13, 3, 0, 1, [1, 0, 0, 0, 0, 1]>, <74, 13, 26, 13, 3, 0, 1, [1, 0, 0, 0, 0, 1]>, <75, 14, 27, 13, 3, 0, 1, [1, 0, 0, 0, 0, 1]>, <76, 15, 28, 13, 3, 0, 1, [1, 0, 0, 0, 0, 1]>, <77, 16, 29, 13, 3, 0, 1, [1, 0, 0, 0, 0, 1]>, <78, 1, 12, 11, 4, 0, 0, [0, 0, 0, 1, 1, 0]>, <79, 2, 13, 11, 4, 0, 0, [0, 0, 0, 1, 1, 0]>, <80, 3, 14, 11, 4, 0, 0, [0, 0, 0, 1, 1, 0]>, <81, 4, 15, 11, 4, 0, 0, [0, 0, 0, 1, 1, 0]>, <82, 5, 16, 11, 4, 0, 0, [0, 0, 0, 1, 1, 0]>, <83, 9, 20, 11, 4, 0, 0, [0, 0, 0, 1, 1, 0]>, <84, 10, 21, 11, 4, 0, 0, [0, 0, 0, 1, 1, 0]>, <85, 11, 22, 11, 4, 0, 0, [0, 0, 0, 1, 1, 0]>, <86, 12, 23, 11, 4, 0, 0, [0, 0, 0, 1, 1, 0]>, <87, 13, 24, 11, 4, 0, 0, [0, 0, 0, 1, 1, 0]>, <88, 14, 25, 11, 4, 0, 0, [0, 0, 0, 1, 1, 0]>, <89, 15, 26, 11, 4, 0, 0, [0, 0, 0, 1, 1, 0]>, <90, 16, 27, 11, 4, 0, 0, [0, 0, 0, 1, 1, 0]>, <91, 17, 28, 11, 4, 0, 0, [0, 0, 0, 1, 1, 0]>, <92, 18, 29, 11, 4, 0, 0, [0, 0, 0, 1, 1, 0]>, <93, 0, 13, 13, 5, 0, 1, [0, 0, 1, 1, 0, 0]>, <94, 1, 14, 13, 5, 0, 1, [0, 0, 1, 1, 0, 0]>, <95, 2, 15, 13, 5, 0, 1, [0, 0, 1, 1, 0, 0]>, <96, 3, 16, 13, 5, 0, 1, [0, 0, 1, 1, 0, 0]>, <97, 4, 17, 13, 5, 0, 1, [0, 0, 1, 1, 0, 0]>, <98, 5, 18, 13, 5, 0, 1, [0, 0, 1, 1, 0, 0]>, <99, 7, 20, 13, 5, 0, 1, [0, 0, 1, 1, 0, 0]>, <100, 8, 21, 13, 5, 0, 1, [0, 0, 1, 1, 0, 0]>, <101, 9, 22, 13, 5, 0, 1, [0, 0, 1, 1, 0, 0]>, <102, 10, 23, 13, 5, 0, 1, [0, 0, 1, 1, 0, 0]>, <103, 11, 24, 13, 5, 0, 1, [0, 0, 1, 1, 0, 0]>, <104, 12, 25, 13, 5, 0, 1, [0, 0, 1, 1, 0, 0]>, <105, 13, 26, 13, 5, 0, 1, [0, 0, 1, 1, 0, 0]>, <106, 14, 27, 13, 5, 0, 1, [0, 0, 1, 1, 0, 0]>, <107, 15, 28, 13, 5, 0, 1, [0, 0, 1, 1, 0, 0]>, <108, 16, 29, 13, 5, 0, 1, [0, 0, 1, 1, 0, 0]>, <109, 1, 12, 11, 6, 0, 1, [0, 1, 1, 0, 0, 0]>, <110, 2, 13, 11, 6, 0, 1, [0, 1, 1, 0, 0, 0]>, <111, 3, 14, 11, 6, 0, 1, [0, 1, 1, 0, 0, 0]>, <112, 4, 15, 11, 6, 0, 1, [0, 1, 1, 0, 0, 0]>, <113, 5, 16, 11, 6, 0, 1, [0, 1, 1, 0, 0, 0]>, <114, 9, 20, 11, 6, 0, 1, [0, 1, 1, 0, 0, 0]>, <115, 10, 21, 11, 6, 0, 1, [0, 1, 1, 0, 0, 0]>, <116, 11, 22, 11, 6, 0, 1, [0, 1, 1, 0, 0, 0]>, <117, 12, 23, 11, 6, 0, 1, [0, 1, 1, 0, 0, 0]>, <118, 13, 24, 11, 6, 0, 1, [0, 1, 1, 0, 0, 0]>, <119, 14, 25, 11, 6, 0, 1, [0, 1, 1, 0, 0, 0]>, <120, 15, 26, 11, 6, 0, 1, [0, 1, 1, 0, 0, 0]>, <121, 16, 27, 11, 6, 0, 1, [0, 1, 1, 0, 0, 0]>, <122, 17, 28, 11, 6, 0, 1, [0, 1, 1, 0, 0, 0]>, <123, 18, 29, 11, 6, 0, 1, [0, 1, 1, 0, 0, 0]>, <124, 0, 14, 14, 7, 1, 0, [0, 0, 0, 0, 1, 1]>, <125, 1, 15, 14, 7, 1, 0, [0, 0, 0, 0, 1, 1]>, <126, 2, 16, 14, 7, 1, 0, [0, 0, 0, 0, 1, 1]>, <127, 3, 17, 14, 7, 1, 0, [0, 0, 0, 0, 1, 1]>, <128, 4, 18, 14, 7, 1, 0, [0, 0, 0, 0, 1, 1]>, <129, 5, 19, 14, 7, 1, 0, [0, 0, 0, 0, 1, 1]>, <130, 6, 20, 14, 7, 1, 0, [0, 0, 0, 0, 1, 1]>, <131, 7, 21, 14, 7, 1, 0, [0, 0, 0, 0, 1, 1]>, <132, 8, 22, 14, 7, 1, 0, [0, 0, 0, 0, 1, 1]>, <133, 9, 23, 14, 7, 1, 0, [0, 0, 0, 0, 1, 1]>, <134, 10, 24, 14, 7, 1, 0, [0, 0, 0, 0, 1, 1]>, <135, 11, 25, 14, 7, 1, 0, [0, 0, 0, 0, 1, 1]>, <136, 12, 26, 14, 7, 1, 0, [0, 0, 0, 0, 1, 1]>, <137, 13, 27, 14, 7, 1, 0, [0, 0, 0, 0, 1, 1]>, <138, 14, 28, 14, 7, 1, 0, [0, 0, 0, 0, 1, 1]>, <139, 15, 29, 14, 7, 1, 0, [0, 0, 0, 0, 1, 1]>, <140, 1, 12, 11, 8, 0, 0, [0, 1, 1, 0, 0, 0]>, <141, 2, 13, 11, 8, 0, 0, [0, 1, 1, 0, 0, 0]>, <142, 3, 14, 11, 8, 0, 0, [0, 1, 1, 0, 0, 0]>, <143, 4, 15, 11, 8, 0, 0, [0, 1, 1, 0, 0, 0]>, <144, 5, 16, 11, 8, 0, 0, [0, 1, 1, 0, 0, 0]>, <145, 9, 20, 11, 8, 0, 0, [0, 1, 1, 0, 0, 0]>, <146, 10, 21, 11, 8, 0, 0, [0, 1, 1, 0, 0, 0]>, <147, 11, 22, 11, 8, 0, 0, [0, 1, 1, 0, 0, 0]>, <148, 12, 23, 11, 8, 0, 0, [0, 1, 1, 0, 0, 0]>, <149, 13, 24, 11, 8, 0, 0, [0, 1, 1, 0, 0, 0]>, <150, 14, 25, 11, 8, 0, 0, [0, 1, 1, 0, 0, 0]>, <151, 15, 26, 11, 8, 0, 0, [0, 1, 1, 0, 0, 0]>, <152, 16, 27, 11, 8, 0, 0, [0, 1, 1, 0, 0, 0]>, <153, 17, 28, 11, 8, 0, 0, [0, 1, 1, 0, 0, 0]>, <154, 18, 29, 11, 8, 0, 0, [0, 1, 1, 0, 0, 0]>, <155, 2, 12, 10, 9, 1, 0, [0, 0, 1, 1, 0, 0]>, <156, 3, 13, 10, 9, 1, 0, [0, 0, 1, 1, 0, 0]>, <157, 4, 14, 10, 9, 1, 0, [0, 0, 1, 1, 0, 0]>, <158, 5, 15, 10, 9, 1, 0, [0, 0, 1, 1, 0, 0]>, <159, 10, 20, 10, 9, 1, 0, [0, 0, 1, 1, 0, 0]>, <160, 11, 21, 10, 9, 1, 0, [0, 0, 1, 1, 0, 0]>, <161, 12, 22, 10, 9, 1, 0, [0, 0, 1, 1, 0, 0]>, <162, 14, 24, 10, 9, 1, 0, [0, 0, 1, 1, 0, 0]>, <163, 15, 25, 10, 9, 1, 0, [0, 0, 1, 1, 0, 0]>, <164, 16, 26, 10, 9, 1, 0, [0, 0, 1, 1, 0, 0]>, <165, 17, 27, 10, 9, 1, 0, [0, 0, 1, 1, 0, 0]>, <166, 18, 28, 10, 9, 1, 0, [0, 0, 1, 1, 0, 0]>, <167, 19, 29, 10, 9, 1, 0, [0, 0, 1, 1, 0, 0]>, <168, 2, 12, 10, 10, 0, 0, [0, 1, 1, 0, 0, 0]>, <169, 3, 13, 10, 10, 0, 0, [0, 1, 1, 0, 0, 0]>, <170, 4, 14, 10, 10, 0, 0, [0, 1, 1, 0, 0, 0]>, <171, 5, 15, 10, 10, 0, 0, [0, 1, 1, 0, 0, 0]>, <172, 10, 20, 10, 10, 0, 0, [0, 1, 1, 0, 0, 0]>, <173, 11, 21, 10, 10, 0, 0, [0, 1, 1, 0, 0, 0]>, <174, 12, 22, 10, 10, 0, 0, [0, 1, 1, 0, 0, 0]>, <175, 14, 24, 10, 10, 0, 0, [0, 1, 1, 0, 0, 0]>, <176, 15, 25, 10, 10, 0, 0, [0, 1, 1, 0, 0, 0]>, <177, 16, 26, 10, 10, 0, 0, [0, 1, 1, 0, 0, 0]>, <178, 17, 27, 10, 10, 0, 0, [0, 1, 1, 0, 0, 0]>, <179, 18, 28, 10, 10, 0, 0, [0, 1, 1, 0, 0, 0]>, <180, 19, 29, 10, 10, 0, 0, [0, 1, 1, 0, 0, 0]>, <181, 0, 14, 14, 11, 1, 0, [1, 1, 0, 0, 0, 0]>, <182, 1, 15, 14, 11, 1, 0, [1, 1, 0, 0, 0, 0]>, <183, 2, 16, 14, 11, 1, 0, [1, 1, 0, 0, 0, 0]>, <184, 3, 17, 14, 11, 1, 0, [1, 1, 0, 0, 0, 0]>, <185, 4, 18, 14, 11, 1, 0, [1, 1, 0, 0, 0, 0]>, <186, 5, 19, 14, 11, 1, 0, [1, 1, 0, 0, 0, 0]>, <187, 6, 20, 14, 11, 1, 0, [1, 1, 0, 0, 0, 0]>, <188, 7, 21, 14, 11, 1, 0, [1, 1, 0, 0, 0, 0]>, <189, 8, 22, 14, 11, 1, 0, [1, 1, 0, 0, 0, 0]>, <190, 9, 23, 14, 11, 1, 0, [1, 1, 0, 0, 0, 0]>, <191, 10, 24, 14, 11, 1, 0, [1, 1, 0, 0, 0, 0]>, <192, 11, 25, 14, 11, 1, 0, [1, 1, 0, 0, 0, 0]>, <193, 12, 26, 14, 11, 1, 0, [1, 1, 0, 0, 0, 0]>, <194, 13, 27, 14, 11, 1, 0, [1, 1, 0, 0, 0, 0]>, <195, 14, 28, 14, 11, 1, 0, [1, 1, 0, 0, 0, 0]>, <196, 15, 29, 14, 11, 1, 0, [1, 1, 0, 0, 0, 0]>, <197, 0, 13, 13, 12, 1, 0, [0, 0, 0, 0, 1, 1]>, <198, 1, 14, 13, 12, 1, 0, [0, 0, 0, 0, 1, 1]>, <199, 2, 15, 13, 12, 1, 0, [0, 0, 0, 0, 1, 1]>, <200, 3, 16, 13, 12, 1, 0, [0, 0, 0, 0, 1, 1]>, <201, 4, 17, 13, 12, 1, 0, [0, 0, 0, 0, 1, 1]>, <202, 5, 18, 13, 12, 1, 0, [0, 0, 0, 0, 1, 1]>, <203, 7, 20, 13, 12, 1, 0, [0, 0, 0, 0, 1, 1]>, <204, 8, 21, 13, 12, 1, 0, [0, 0, 0, 0, 1, 1]>, <205, 9, 22, 13, 12, 1, 0, [0, 0, 0, 0, 1, 1]>, <206, 10, 23, 13, 12, 1, 0, [0, 0, 0, 0, 1, 1]>, <207, 11, 24, 13, 12, 1, 0, [0, 0, 0, 0, 1, 1]>, <208, 12, 25, 13, 12, 1, 0, [0, 0, 0, 0, 1, 1]>, <209, 13, 26, 13, 12, 1, 0, [0, 0, 0, 0, 1, 1]>, <210, 14, 27, 13, 12, 1, 0, [0, 0, 0, 0, 1, 1]>, <211, 15, 28, 13, 12, 1, 0, [0, 0, 0, 0, 1, 1]>, <212, 16, 29, 13, 12, 1, 0, [0, 0, 0, 0, 1, 1]>, <213, 2, 12, 10, 13, 0, 0, [0, 0, 0, 0, 1, 1]>, <214, 3, 13, 10, 13, 0, 0, [0, 0, 0, 0, 1, 1]>, <215, 4, 14, 10, 13, 0, 0, [0, 0, 0, 0, 1, 1]>, <216, 5, 15, 10, 13, 0, 0, [0, 0, 0, 0, 1, 1]>, <217, 10, 20, 10, 13, 0, 0, [0, 0, 0, 0, 1, 1]>, <218, 11, 21, 10, 13, 0, 0, [0, 0, 0, 0, 1, 1]>, <219, 12, 22, 10, 13, 0, 0, [0, 0, 0, 0, 1, 1]>, <220, 14, 24, 10, 13, 0, 0, [0, 0, 0, 0, 1, 1]>, <221, 15, 25, 10, 13, 0, 0, [0, 0, 0, 0, 1, 1]>, <222, 16, 26, 10, 13, 0, 0, [0, 0, 0, 0, 1, 1]>, <223, 17, 27, 10, 13, 0, 0, [0, 0, 0, 0, 1, 1]>, <224, 18, 28, 10, 13, 0, 0, [0, 0, 0, 0, 1, 1]>, <225, 19, 29, 10, 13, 0, 0, [0, 0, 0, 0, 1, 1]>, <226, 0, 12, 12, 14, 1, 0, [1, 1, 0, 0, 0, 0]>, <227, 1, 13, 12, 14, 1, 0, [1, 1, 0, 0, 0, 0]>, <228, 2, 14, 12, 14, 1, 0, [1, 1, 0, 0, 0, 0]>, <229, 3, 15, 12, 14, 1, 0, [1, 1, 0, 0, 0, 0]>, <230, 4, 16, 12, 14, 1, 0, [1, 1, 0, 0, 0, 0]>, <231, 5, 17, 12, 14, 1, 0, [1, 1, 0, 0, 0, 0]>, <232, 8, 20, 12, 14, 1, 0, [1, 1, 0, 0, 0, 0]>, <233, 9, 21, 12, 14, 1, 0, [1, 1, 0, 0, 0, 0]>, <234, 10, 22, 12, 14, 1, 0, [1, 1, 0, 0, 0, 0]>, <235, 11, 23, 12, 14, 1, 0, [1, 1, 0, 0, 0, 0]>, <236, 12, 24, 12, 14, 1, 0, [1, 1, 0, 0, 0, 0]>, <237, 13, 25, 12, 14, 1, 0, [1, 1, 0, 0, 0, 0]>, <238, 14, 26, 12, 14, 1, 0, [1, 1, 0, 0, 0, 0]>, <239, 15, 27, 12, 14, 1, 0, [1, 1, 0, 0, 0, 0]>, <240, 16, 28, 12, 14, 1, 0, [1, 1, 0, 0, 0, 0]>, <241, 17, 29, 12, 14, 1, 0, [1, 1, 0, 0, 0, 0]>};
